0 0 0 0
0 1 0 0
0 2 1 0
0 3 1 0
0 4 0 7
0 5 0 7
0 6 0 10
0 7 0 16
0 8 2 18
0 9 0 13
0 10 0 11
0 11 2 12
0 12 0 15
0 13 0 27
0 14 0 19
0 15 0 12
0 16 0 17
0 17 0 16
0 18 0 5
0 19 0 20
0 20 0 20
0 21 0 12
0 22 0 22
0 23 0 28
0 24 0 24
0 25 0 27
0 26 2 22
0 27 0 31
0 28 0 29
0 29 0 31
0 30 0 33
0 31 0 34
